p cnf 40 18
-4 -5 0
4 5 0
-2 -6 0
2 6 0
-3 -7 0
3 7 0
1 -8 0
2 -8 0
-1 -2 8 0
1 -9 0
2 -9 0
-1 -2 9 0
9 -10 0
5 -10 0
-9 -5 10 0
1 -11 0
6 -11 0
-1 -6 11 0
11 -12 0
7 -12 0
-11 -7 12 0
12 -13 0
4 -13 0
-12 -4 13 0
1 -14 0
2 -14 0
-1 -2 14 0
-8 15 0
-10 15 0
8 10 -15 0
-15 16 0
-13 16 0
15 13 -16 0
-16 17 0
-14 17 0
16 14 -17 0
-17 18 0
-3 18 0
17 3 -18 0
18 0
